5 5
1 75 2 17 0 54 3 21 4 22
1 97 4 55 2 29 0 79 3 21
3 2 0 42 1 52 2 38 4 3
4 25 3 77 0 88 1 62 2 95
1 15 0 70 2 10 4 73 3 69
-1
0 2 3 5
0 2 5
0 2 3 5
0 1 2 4 5
0 2 5
-2
134 154 252
227 384
50 118 218
31 156 277 435
122 242

388 7
21 17 11 2 8
20 5 0 18 12
22 1 7 19 13
16 10 24 3 9
15 23 6 4 14
